letting n =  10
letting blocks =  [[1, 1], [1, 2], [1, 3], [1, 4], [1, 7], [2, 7], [2, 8], [2, 10], [3, 4], [3, 5], [3, 6], [3, 10], [4, 1], [4, 3], [4, 4], [4, 5], [4, 9], [4, 10], [5, 1], [5, 2], [5, 3], [5, 5], [5, 7], [5, 10], [6, 3], [6, 4], [6, 5], [6, 7], [6, 9], [6, 10], [7, 3], [7, 6], [7, 7], [7, 8], [7, 10], [8, 2], [8, 6], [8, 8], [8, 9], [9, 2], [9, 3], [9, 5], [9, 7], [9, 8], [10, 1], [10, 2], [10, 4], [10, 5], [10, 6], [10, 9]]
